Please solve the following SAT Problem encoded in DIMACS format, provide line of thoughts, write your final answer as a single solution at the end of response with header 'answer: ' : 
p cnf 10 70
-8 -10 -7 0
-9 -3 -7 0
8 -1 -4 0
-4 -10 5 0
-1 -7 -2 0
8 -10 6 0
-8 2 5 0
-4 10 -7 0
-4 5 -2 0
2 7 -9 0
6 -1 -2 0
4 -2 3 0
-7 10 6 0
-4 -6 -9 0
-7 -10 -3 0
6 -3 -2 0
-9 -3 6 0
8 6 -4 0
-1 5 -10 0
5 -2 -4 0
-3 5 7 0
2 8 -4 0
-2 -4 6 0
-1 -3 -6 0
-1 5 -10 0
-7 -9 -1 0
-9 -4 -6 0
-1 -4 -3 0
-4 -5 -2 0
9 -2 5 0
-9 -2 -4 0
-7 -1 -3 0
8 -10 -7 0
-10 -3 -4 0
6 -7 -3 0
5 -2 10 0
10 -3 -4 0
5 9 -1 0
6 -3 -4 0
-10 8 -4 0
7 -9 5 0
5 -9 8 0
-4 5 -3 0
7 5 -1 0
-1 -5 -10 0
-7 6 1 0
-10 5 6 0
7 -1 -3 0
-9 6 1 0
-1 -7 -4 0
-2 3 -9 0
-3 -9 2 0
-4 10 -2 0
-7 -3 8 0
3 -7 -2 0
-7 -6 -3 0
9 -1 6 0
-7 -8 1 0
5 -1 8 0
-9 -3 -8 0
9 -7 6 0
-9 -1 5 0
-10 6 -8 0
-1 9 2 0
-6 5 -4 0
5 4 6 0
6 -7 8 0
-7 -6 2 0
-4 -3 -1 0
5 -1 4 0

